1610
24 34 56 67 6 80 77 47 85 45 59 3 89 55 62 75 90 29 94 71 48 1 43 28 22 20 58 32 68 15 63 49 91 14 21 38 86 27 23 78 53 57 9 46 25 17 87 5 74 92 18 44 30 76 84 10 16 12 37 2 66 95 96 40 81 33 31 8 65 41 97 42 61 64 88 26 11 72 93 70 13 69 39 51 79 54 98 50 99 36 7 73 35 83 52 60 4 82 19 
